200
1000
210
210
210
210
208
208
207
207
206
205
205
205
203
202
202
201
200
200
200
200
199
199
199
199
198
198
198
197
197
197
195
193
193
192
192
191
190
188
187
185
184
183
182
179
179
178
177
176
176
174
173
173
173
173
173
172
172
171
169
169
169
169
168
168
167
166
166
165
164
164
164
163
163
162
162
162
162
162
161
160
158
158
157
157
156
155
153
151
150
150
147
147
145
144
141
140
138
137
137
136
135
135
134
128
127
126
125
125
125
125
124
124
122
122
122
121
119
118
118
118
117
117
116
116
116
115
115
114
113
111
110
110
110
110
109
109
109
109
109
108
108
108
108
107
107
106
106
105
105
104
103
101
101
101
99
98
97
96
95
95
94
94
94
94
94
94
93
93
92
92
91
91
91
87
86
86
85
83
83
83
82
82
81
80
80
79
79
79
79
77
77
77
76
76
76
75
74
73
73
72
